2642
500000
332864
332864
332864
332864
332864
332864
332846
332846
332846
332846
332846
332846
332655
332655
332655
332655
332655
332655
332655
332655
332655
332655
332655
332655
332655
332655
328500
327113
327113
327113
327113
327113
327113
327113
327113
327113
327113
327113
327113
327113
327113
327113
327113
327113
327113
326457
326457
326457
326457
323835
323835
323835
323835
323835
323835
323835
323835
323835
323835
323835
323835
323835
323835
322623
322623
322623
322623
322623
322623
322623
322623
322623
322623
322623
322623
322623
322623
322623
322623
322623
322144
322144
322144
322144
322144
322144
322144
322144
322144
322144
322144
322144
322144
321878
321816
321816
321816
321816
321816
321816
321816
321816
321816
321816
321816
321816
321816
320748
320748
320748
320748
320748
320748
320748
320748
319720
319720
319720
319720
319720
319720
319720
319720
319720
319720
319720
319720
319720
319720
319720
319330
319330
319330
319330
319330
319330
319330
319330
319330
319330
319330
316914
316914
316914
316914
316914
316914
316914
316914
316914
316914
316914
316914
316914
316914
316914
316914
316914
316914
316914
316818
316818
316818
316818
316818
316818
316818
316818
316818
316818
316818
316818
316818
316818
316818
316818
316818
316818
316818
316818
316102
316102
316102
315699
315699
315699
315699
315699
315699
315699
315699
315699
315699
315699
315699
315699
315699
315699
315699
315699
315699
315699
314728
314728
314728
314728
314728
314728
314728
314728
314728
314728
314728
314728
314728
313856
313856
313856
313856
313856
313856
313856
313856
313856
313856
313856
313856
313856
313856
313856
313856
313856
313856
313399
313399
313399
313399
313399
313399
313399
313194
313194
313194
310771
310771
310771
310771
310771
310771
310771
310771
310771
310771
310771
310771
310771
310771
310771
310771
310554
310554
310554
310554
310554
310554
310554
310554
310554
310554
310554
310554
310554
310448
310339
310339
310339
310339
310339
310339
310339
310339
310339
310339
310339
310339
310339
307147
307147
307147
307147
307147
307146
306804
306804
306804
306804
306804
306804
306804
306804
306804
306804
306804
306804
306804
306236
306236
306236
306236
306236
306236
306236
306236
306236
306236
306236
306236
306236
306236
306236
306236
304800
304136
304136
304136
304136
304136
304136
304136
304136
304136
304136
304136
304136
304136
304136
304136
304136
304136
304022
304022
304022
304022
304022
304022
304022
304022
304022
304022
304022
304022
301596
301596
301272
301272
301272
301272
301272
301272
301272
301272
301272
301272
301272
301272
301272
301272
301272
301272
301272
301272
297013
297013
297013
297013
297013
295633
295633
295633
295633
295633
295633
295633
295633
295497
295389
295389
295389
295389
295389
295389
295389
295389
295389
295389
295389
295389
295389
295389
293348
293348
293348
293348
293348
293348
293348
293348
293348
293348
293348
293348
293348
293348
293348
293348
293348
293084
293084
293084
293084
293084
293084
293084
293084
293084
293084
293084
293084
293084
293084
293084
293084
293084
293084
292565
292565
292565
292565
292565
292565
292565
292565
292565
292565
292493
292493
292493
292493
292493
292493
292493
292493
291596
291093
291093
291093
291093
291093
291093
291093
291093
291093
291093
291093
291093
291093
291093
291093
291093
291093
290248
290248
290248
287143
287143
287143
287143
287143
287143
287143
287143
287143
287143
287143
287143
287143
287143
287143
287143
287143
287143
287143
286607
286607
286054
286054
286054
286054
286054
286054
286054
286054
286054
286054
285552
285552
285552
285552
285552
285552
285552
285552
285552
285552
285552
285552
285552
285552
285179
285179
285179
285179
285179
285179
285179
285179
285179
285179
285179
285179
285179
285179
285179
282489
282489
282489
282489
279468
279468
279468
279468
279468
279468
279468
279468
279468
279468
279468
279468
279468
279468
279468
279468
278947
278947
278947
278947
278947
278947
278947
278947
278751
278751
278751
278751
278751
278751
278751
278751
278751
278751
278751
278262
278262
278262
278262
278262
278262
278262
278262
278262
278262
278262
278262
278262
278262
278262
278262
278262
278262
278173
278173
278173
278173
278173
278173
278173
278173
278173
278173
278173
278173
278173
278173
278173
278173
278173
278173
278173
275364
275364
275364
275364
275364
275364
275364
275364
275364
275364
275364
275364
275364
275364
275364
275364
275364
275364
273876
273876
273876
273876
273876
273876
273876
273876
273876
273876
273876
273876
273876
273876
273876
273876
273876
273876
273876
273285
273285
273285
273285
273285
273285
273285
273285
273285
270649
270649
270649
270649
270649
270177
270177
270177
270177
270177
268566
268566
268566
268566
268566
268566
268566
268566
268566
268566
268566
268566
268566
266052
266052
266052
266052
266052
266052
266052
266052
266052
266052
266052
266052
266052
265498
261837
261837
261837
261837
261837
261837
261837
261837
261837
260802
260802
260802
260715
260715
260715
260715
260715
260715
260715
260715
260715
260530
260530
260530
260530
260530
260530
260530
260530
260530
260530
260340
260224
260224
260224
260224
260224
260224
260224
260224
260224
260224
260224
260224
260224
260224
260224
260224
260224
260224
260224
259536
259536
259536
259536
259536
259536
259536
257960
257960
257960
257960
257960
257960
257960
257960
257960
257960
257490
257490
257490
257490
257490
256117
256117
256117
256117
256117
256117
256117
256117
256117
256117
256117
256117
256117
256117
256117
256117
256117
256117
256117
255144
255144
255144
255144
255144
255144
255144
255144
255144
255144
255144
254357
254357
254357
254357
254357
254357
254357
254357
254357
254357
254357
254357
254357
254357
254160
254160
254160
254160
254160
254160
253146
253146
253146
253146
253146
252965
252965
252965
252965
252965
252965
252965
252965
252965
252965
252965
252636
252636
252636
252636
252636
252636
252636
252636
252636
252636
252636
252636
252636
252636
252636
252636
252636
252636
252636
252636
252457
250036
250036
249743
249743
249743
249743
249743
249743
249743
249743
249743
249743
249613
249613
249613
249613
249613
249613
249613
249613
249613
249613
248775
248775
248775
248775
248540
248540
248540
248540
248540
248540
246078
242577
242555
242555
242555
242555
242555
242555
242555
242555
242555
242555
242555
242555
242555
242555
242555
242555
242555
242555
241225
241225
241225
241225
241225
241225
241225
241225
241225
241225
241225
241225
241225
241225
241225
241225
241225
240293
240293
239638
239638
239638
239638
239638
239638
239638
239638
239638
239638
239638
239638
239442
239442
239442
239442
239442
239442
239442
239442
239442
239405
239405
239405
239405
239405
239405
239405
239405
239405
239405
239405
239405
239405
239405
238375
238375
238375
238375
238375
238375
236530
236530
236530
236530
236530
236530
236530
236530
236530
236530
236530
236530
236530
235235
235235
235235
230534
230534
230534
230534
230534
230534
230534
230534
230534
230534
230534
230534
230534
230534
230436
230436
230436
230436
230436
230436
230436
230436
230436
230436
229727
229727
229727
229727
229727
229727
229727
229727
229727
229727
229727
229727
229727
228248
228248
225809
225809
225809
225809
225809
225809
225809
225809
225809
225169
225169
225169
225169
225169
225169
225169
225169
225122
225122
225122
225122
223309
223309
223309
223309
223309
223309
223309
223309
223309
223309
223309
223309
223309
222473
222473
222473
222473
222473
222473
222473
222473
222473
222473
222022
222022
222022
222022
222022
222022
222022
222022
221637
221637
221637
221637
221637
221637
221637
221637
221637
221637
221637
221637
221637
219682
219682
219682
219682
219682
219682
219682
219682
219682
217405
217405
217405
217405
217405
217405
217405
217405
214039
214039
214039
214039
214039
214039
213630
213630
213630
213630
213630
213630
213630
213630
213630
213630
213630
213630
213630
213630
213630
213630
211884
211884
211884
211884
211759
211759
211759
211759
211759
211759
211759
211759
211759
211759
211759
211759
211759
211759
211759
211759
211759
211759
211643
211643
211643
211643
211643
211643
211643
211643
211643
211643
211643
211643
211643
211643
211203
211203
211203
211203
211203
211203
211203
211203
211203
211203
210609
210609
210609
210609
210609
210609
210609
210609
210609
210609
210609
210609
210609
210609
210609
210609
210109
209678
209678
209678
209678
209678
209678
209678
209678
209678
209678
209678
209678
209678
209678
209678
209678
209678
209678
209678
209404
209404
209404
209404
209404
209404
209404
209404
209404
209404
209404
209404
209404
209404
209404
209404
209404
208601
208601
208601
208601
208601
208601
208601
207321
207321
207321
207321
207321
207321
207321
207321
207321
206592
206592
206592
206592
206592
206592
206592
206592
206592
206592
206592
206592
206592
206592
206592
206592
206592
205499
205499
205499
205499
205499
205499
205499
205499
205499
205402
205402
205402
205402
205402
205402
205402
205402
205402
205402
205402
205402
205402
205402
205402
205402
205402
205402
204849
204849
204849
204849
204849
204849
204849
204849
204849
204446
204446
204446
204446
204446
200954
200954
200954
200954
200954
200954
200954
200954
200954
200954
200954
200954
200954
200954
200954
200954
200770
200770
200770
200770
200770
200444
200444
200444
200444
200444
200444
200444
200444
200444
200444
200444
200444
200444
200444
200444
200444
200444
200444
197421
197421
196277
196277
196277
196277
196277
196277
196277
196277
196277
196277
196277
196277
196277
196277
196277
196277
196277
196184
196184
196184
196184
196184
196184
196184
196184
196184
195007
195007
195007
195007
195007
195007
195007
195007
195007
195007
194734
194734
194734
194734
194734
194734
194734
194734
194734
194734
193956
193956
193956
193956
193956
193956
193956
193956
193956
193956
193956
193956
193956
193956
193956
193472
193472
193472
193472
193472
193472
193472
193472
193472
193472
193472
193472
193472
192728
192728
192728
192728
192728
192728
191902
191902
191902
191902
191902
191902
191902
191902
191902
191902
191902
191902
191902
191902
188626
188626
188626
188626
188626
188626
188626
188626
188626
188626
188626
188626
188626
188626
188626
188626
188608
188608
188608
188608
188608
188608
188608
188529
188529
188529
188529
188529
188529
188529
188529
188529
188529
188529
188529
188529
188529
188529
188529
188529
186686
186686
186686
186686
186686
186686
186686
186686
186686
186686
186686
186686
186686
186686
186686
186686
186686
184796
184796
184796
184796
184796
184796
184796
184796
184796
184796
184796
184796
184796
184796
184796
184796
184796
184796
184796
181920
181920
181920
181920
181920
181920
181829
181829
181829
181829
180961
180961
180961
180961
180961
180961
180961
180961
180961
180961
180961
180961
180961
180961
180961
180961
180961
180961
180731
180731
180731
180731
178294
178294
178294
178294
178294
178294
178294
178294
178294
178294
178294
177945
177945
177945
177945
177945
177945
177945
177945
177945
177945
177895
177895
177895
177895
177895
177895
177895
177895
177895
177895
170784
170784
170784
170784
170784
170784
170784
170784
168803
168803
168803
168803
168803
168803
168803
168803
168803
168803
168803
168803
168803
167892
167892
167892
167892
167892
167892
167892
166885
166885
166885
166885
166885
166885
166885
166885
166885
166885
166885
164467
164467
164467
164467
163220
163141
163141
163141
163141
163141
163141
163141
163141
163141
163141
163141
163141
162727
162727
162727
162727
162727
162727
162727
162727
162727
162727
162727
161934
161934
161934
161934
161934
161934
161934
161934
161934
161934
161934
161934
161934
161934
161934
161934
161934
161934
161850
161850
161850
161850
161850
161850
161850
161850
161850
161850
161850
161850
161850
161850
161850
161850
161850
161850
161850
161850
161730
161730
161730
161730
161730
161730
161730
161730
161730
161730
161730
161730
161730
160113
160113
160113
160113
160113
160113
160113
160113
160113
160113
160113
159254
159254
159254
159254
159254
159254
159254
159254
159254
159254
159254
159254
159254
159254
159254
159254
159254
159254
159254
158370
158370
158370
158370
158370
158370
158370
158370
158370
158370
158370
158370
158370
158370
158370
158370
155519
155519
155519
155519
155519
155519
155519
155519
155519
155519
155519
155519
155519
155519
155519
155519
155519
155519
154385
154385
154385
154385
154385
154385
154385
154385
154385
154385
154385
154385
154385
154385
154385
154385
154385
154385
154385
154385
153263
153263
153263
153263
153263
153263
152902
152902
152902
152902
152902
152902
152902
152902
152902
152902
152902
152902
152902
152902
152902
152902
152902
152902
152902
151032
151032
151032
151032
151032
151032
151032
151032
151032
151032
151032
149894
149894
149894
149894
149894
149894
149894
149894
149894
149894
149894
149894
149894
149894
149894
149894
149894
148423
148423
148423
148423
145617
145617
145617
145617
145617
145617
145617
145617
145617
145617
145617
145617
145617
143463
143463
142330
142330
142330
142330
142330
142330
142330
142330
142330
142330
142330
142330
142330
142330
142330
142330
142330
142330
142330
142323
142323
142323
142323
142323
142323
142323
142323
142323
142323
142323
142323
142323
142323
142323
142323
142323
142323
141909
141909
141909
141909
139559
139559
139559
139559
139559
139559
139559
139559
139559
139559
139559
139023
139023
139023
139023
139023
139023
139023
139023
139023
139023
139023
139023
138861
138861
138861
138861
138861
138861
138861
138861
138861
138861
137357
137357
137357
137357
137357
137357
137357
137357
137357
137357
137357
137357
137357
137357
137357
137336
137336
137336
137336
137336
137336
137336
137336
137336
135898
135898
135898
135898
135898
135395
135395
135395
135395
135395
135395
135395
135395
135395
135395
135395
135395
135395
135395
135395
135395
135395
135395
135395
135395
133976
133976
133976
133976
133976
133976
133976
133976
133976
133976
133976
133976
133976
133976
133976
133976
133514
133514
133514
133514
133514
133514
133514
133514
133514
133514
133514
133514
133514
133514
133514
133514
133514
133514
133329
133329
133329
133329
133329
133329
133329
133329
133329
133329
133329
133329
132697
132697
132697
132697
132697
132697
132697
132697
132697
132697
132697
132697
132697
132697
132697
132697
132697
132697
132697
132697
132614
132614
132614
132614
132614
132614
132614
132614
132614
132614
132614
132614
132614
132614
132614
132614
132614
132614
132213
132213
132213
132213
132213
132213
132213
132213
132213
132213
132213
132213
132213
132213
132213
132213
132213
130756
130756
130756
129028
129028
129028
129028
129028
129028
129028
129028
129028
129028
129028
129028
129028
128530
128530
128530
128530
128530
128530
128530
128530
128530
128530
128530
128530
128530
128530
128530
128530
128530
126848
124262
124262
124262
124262
124262
124262
124262
124262
123441
123441
123441
123441
123441
123441
123441
123441
123441
123441
123441
123441
122712
122712
122588
122021
122021
122021
122021
122021
122021
122021
122021
122021
122021
122021
122021
122021
122021
122021
122021
120669
120669
120669
120669
120669
120669
120669
118007
117025
117025
117025
117025
117025
117025
117025
117025
117025
117025
117025
117025
117025
117025
117025
117025
117025
117025
117025
117025
115064
115064
115064
115064
114768
114768
109375
109375
109375
109375
109375
109375
109375
109375
109375
108358
108358
108358
108358
108358
108358
108358
108358
108358
108358
108358
108276
108276
108276
108276
108276
108276
108276
108276
108276
108276
108276
108276
107220
107220
107220
107220
107220
107220
107220
107220
107220
107220
107220
107220
107220
107220
107220
107220
107220
107220
107220
107220
104424
104424
104424
104424
104424
104424
104424
104188
104188
104188
104188
104188
102879
102879
102879
102879
102879
102879
102879
102879
102879
102879
102879
102879
102879
102879
102879
102879
102492
102492
102492
102467
102467
102467
101673
101673
101673
101673
101673
101673
101673
101673
101673
101673
101673
101673
101673
101673
101673
101673
101673
101468
101468
101468
101468
101468
101468
101468
101468
101468
99655
99655
99655
99655
99655
99655
99655
99655
99655
99655
99655
99655
99655
99655
99655
99655
99655
99634
99634
99634
99634
99634
99634
99634
99634
99634
99634
99634
99634
99634
99634
99431
99431
99431
99431
99431
99431
99178
99178
99178
99178
99178
99178
99178
99178
99178
99178
99178
99178
99178
99178
99178
99178
99178
98393
98393
98393
98393
98393
98393
98393
98393
98393
98393
96174
96174
96174
96174
96174
96174
96174
96174
94859
94859
94859
94859
94859
94859
94859
94859
94859
92280
92280
92280
92280
92280
92280
92280
92280
92242
92242
92242
92242
92242
92242
92242
92242
92242
92242
92242
92242
92242
92242
92242
92242
92242
92242
92242
92242
91896
91896
91896
91896
91896
91896
91896
91896
91896
91896
91719
91719
91719
91719
91719
91719
91719
91719
91719
91719
91719
91654
91654
91654
91654
91654
91654
91654
91654
91654
91654
91654
91654
91654
90778
90778
90778
90778
90778
90778
90778
90778
90778
90778
89909
89909
89909
89909
89909
89909
89909
89909
89909
89909
89909
89909
89909
89909
89909
89909
89909
89909
89909
89285
89285
89285
89285
89285
89285
89285
89285
89285
89285
89285
89285
89285
89285
89285
89285
89285
89285
89285
89285
87595
86494
86494
86494
86494
86494
86494
86494
86494
86494
86494
86494
86494
86494
86494
86494
86494
86150
86150
86150
86150
86150
86150
86150
86150
83557
83557
83557
83557
83557
83557
83557
83557
80440
80440
80440
80440
80440
80440
80440
80440
80440
80440
80440
80440
80440
80440
80440
80440
80440
80440
80440
80440
80320
80320
80320
80320
80320
80320
80320
80320
80320
80320
80320
80320
80320
80320
77522
77522
77522
77522
77522
77522
77522
77194
77194
77194
77194
77194
77194
75719
75719
75719
75719
75719
75705
75705
75705
75705
75705
75705
75705
75705
75705
75705
75705
75320
75320
75320
75320
73885
73885
72960
72960
72960
72960
72960
72960
72960
72960
72960
72960
72960
72960
72960
72960
72960
72960
72867
72867
72867
72867
72867
72867
72867
72867
72867
72867
72867
72867
72867
72867
72867
72867
72419
72419
72419
72419
72419
71456
71456
71456
71456
71456
71456
71456
71456
71456
71456
71456
71456
71456
71456
70753
68531
68531
68178
68178
68178
68178
68178
68178
68178
